(set-info :smt-lib-version 2.6)
(set-logic UFNIA)
(set-info :source |
Generated by: Geoff Sutcliffe
Generated on: 2026-03-11
Generator: TPTPWorld
Application: Benchmarking automated theorem provers
Time limit: 120.0

These benchmarks are translations from the TPTP Library (Thousands of
Problems for Theorem Provers), see http://www.cs.miami.edu/~tptp/

The TPTP is maintained by Geoff Sutcliffe, and he contributed this
selection of benchmarks to SMT-LIB.  They were exported from the
v9.2.1 realease of TPTP.
|)
(set-info :category "industrial")
(set-info :status "unknown")
; SZS status Success
(declare-sort $$unsorted 0)
(declare-sort tptp.uni 0)
(declare-sort tptp.ty 0)
(declare-fun tptp.sort1 (tptp.ty tptp.uni) Bool)
(declare-fun tptp.witness1 (tptp.ty) tptp.uni)
(assert (forall ((A tptp.ty)) (tptp.sort1 A (tptp.witness1 A))))
(declare-fun tptp.int () tptp.ty)
(declare-fun tptp.real () tptp.ty)
(declare-sort tptp.bool1 0)
(declare-fun tptp.bool () tptp.ty)
(declare-fun tptp.true1 () tptp.bool1)
(declare-fun tptp.false1 () tptp.bool1)
(declare-fun tptp.match_bool1 (tptp.ty tptp.bool1 tptp.uni tptp.uni) tptp.uni)
(assert (forall ((A tptp.ty) (X tptp.bool1) (X1 tptp.uni) (X2 tptp.uni)) (tptp.sort1 A (tptp.match_bool1 A X X1 X2))))
(assert (forall ((A tptp.ty) (Z tptp.uni) (Z1 tptp.uni)) (=> (tptp.sort1 A Z) (= (tptp.match_bool1 A tptp.true1 Z Z1) Z))))
(assert (forall ((A tptp.ty) (Z tptp.uni) (Z1 tptp.uni)) (=> (tptp.sort1 A Z1) (= (tptp.match_bool1 A tptp.false1 Z Z1) Z1))))
(assert (not (= tptp.true1 tptp.false1)))
(assert (forall ((U tptp.bool1)) (or (= U tptp.true1) (= U tptp.false1))))
(declare-sort tptp.tuple02 0)
(declare-fun tptp.tuple0 () tptp.ty)
(declare-fun tptp.tuple03 () tptp.tuple02)
(assert (forall ((U tptp.tuple02)) (= U tptp.tuple03)))
(declare-fun tptp.qtmark () tptp.ty)
(assert (forall ((X Int) (Y Int) (Z Int)) (=> (<= X Y) (=> (<= 0 Z) (<= (* X Z) (* Y Z))))))
(declare-fun tptp.set (tptp.ty) tptp.ty)
(declare-fun tptp.mem (tptp.ty tptp.uni tptp.uni) Bool)
(declare-fun tptp.infix_eqeq (tptp.ty tptp.uni tptp.uni) Bool)
(assert (forall ((A tptp.ty) (S1 tptp.uni) (S2 tptp.uni)) (let ((_let_1 (tptp.infix_eqeq A S1 S2))) (and (=> _let_1 (forall ((X tptp.uni)) (= (tptp.mem A X S1) (tptp.mem A X S2)))) (=> (forall ((X tptp.uni)) (=> (tptp.sort1 A X) (= (tptp.mem A X S1) (tptp.mem A X S2)))) _let_1)))))
(assert (forall ((A tptp.ty) (S1 tptp.uni) (S2 tptp.uni)) (let ((_let_1 (tptp.set A))) (=> (tptp.sort1 _let_1 S1) (=> (tptp.sort1 _let_1 S2) (=> (tptp.infix_eqeq A S1 S2) (= S1 S2)))))))
(declare-fun tptp.subset (tptp.ty tptp.uni tptp.uni) Bool)
(assert (forall ((A tptp.ty) (S1 tptp.uni) (S2 tptp.uni)) (let ((_let_1 (tptp.subset A S1 S2))) (and (=> _let_1 (forall ((X tptp.uni)) (=> (tptp.mem A X S1) (tptp.mem A X S2)))) (=> (forall ((X tptp.uni)) (=> (tptp.sort1 A X) (=> (tptp.mem A X S1) (tptp.mem A X S2)))) _let_1)))))
(assert (forall ((A tptp.ty) (S tptp.uni)) (tptp.subset A S S)))
(assert (forall ((A tptp.ty) (S1 tptp.uni) (S2 tptp.uni) (S3 tptp.uni)) (=> (tptp.subset A S1 S2) (=> (tptp.subset A S2 S3) (tptp.subset A S1 S3)))))
(declare-fun tptp.empty (tptp.ty) tptp.uni)
(assert (forall ((A tptp.ty)) (tptp.sort1 (tptp.set A) (tptp.empty A))))
(declare-fun tptp.is_empty (tptp.ty tptp.uni) Bool)
(assert (forall ((A tptp.ty) (S tptp.uni)) (let ((_let_1 (tptp.is_empty A S))) (and (=> _let_1 (forall ((X tptp.uni)) (not (tptp.mem A X S)))) (=> (forall ((X tptp.uni)) (=> (tptp.sort1 A X) (not (tptp.mem A X S)))) _let_1)))))
(assert (forall ((A tptp.ty)) (tptp.is_empty A (tptp.empty A))))
(assert (forall ((A tptp.ty) (X tptp.uni)) (= (tptp.mem A X (tptp.empty A)) false)))
(declare-fun tptp.add (tptp.ty tptp.uni tptp.uni) tptp.uni)
(assert (forall ((A tptp.ty) (X tptp.uni) (X1 tptp.uni)) (tptp.sort1 (tptp.set A) (tptp.add A X X1))))
(assert (forall ((A tptp.ty) (X tptp.uni) (Y tptp.uni)) (=> (tptp.sort1 A X) (=> (tptp.sort1 A Y) (forall ((S tptp.uni)) (= (tptp.mem A X (tptp.add A Y S)) (or (= X Y) (tptp.mem A X S))))))))
(declare-fun tptp.remove (tptp.ty tptp.uni tptp.uni) tptp.uni)
(assert (forall ((A tptp.ty) (X tptp.uni) (X1 tptp.uni)) (tptp.sort1 (tptp.set A) (tptp.remove A X X1))))
(assert (forall ((A tptp.ty) (X tptp.uni) (Y tptp.uni) (S tptp.uni)) (=> (tptp.sort1 A X) (=> (tptp.sort1 A Y) (= (tptp.mem A X (tptp.remove A Y S)) (and (not (= X Y)) (tptp.mem A X S)))))))
(assert (forall ((A tptp.ty) (X tptp.uni) (S tptp.uni)) (=> (tptp.sort1 (tptp.set A) S) (=> (tptp.mem A X S) (= (tptp.add A X (tptp.remove A X S)) S)))))
(assert (forall ((A tptp.ty) (X tptp.uni) (S tptp.uni)) (= (tptp.remove A X (tptp.add A X S)) (tptp.remove A X S))))
(assert (forall ((A tptp.ty) (X tptp.uni) (S tptp.uni)) (tptp.subset A (tptp.remove A X S) S)))
(declare-fun tptp.union (tptp.ty tptp.uni tptp.uni) tptp.uni)
(assert (forall ((A tptp.ty) (X tptp.uni) (X1 tptp.uni)) (tptp.sort1 (tptp.set A) (tptp.union A X X1))))
(assert (forall ((A tptp.ty) (S1 tptp.uni) (S2 tptp.uni) (X tptp.uni)) (= (tptp.mem A X (tptp.union A S1 S2)) (or (tptp.mem A X S1) (tptp.mem A X S2)))))
(declare-fun tptp.inter (tptp.ty tptp.uni tptp.uni) tptp.uni)
(assert (forall ((A tptp.ty) (X tptp.uni) (X1 tptp.uni)) (tptp.sort1 (tptp.set A) (tptp.inter A X X1))))
(assert (forall ((A tptp.ty) (S1 tptp.uni) (S2 tptp.uni) (X tptp.uni)) (= (tptp.mem A X (tptp.inter A S1 S2)) (and (tptp.mem A X S1) (tptp.mem A X S2)))))
(declare-fun tptp.diff (tptp.ty tptp.uni tptp.uni) tptp.uni)
(assert (forall ((A tptp.ty) (X tptp.uni) (X1 tptp.uni)) (tptp.sort1 (tptp.set A) (tptp.diff A X X1))))
(assert (forall ((A tptp.ty) (S1 tptp.uni) (S2 tptp.uni) (X tptp.uni)) (= (tptp.mem A X (tptp.diff A S1 S2)) (and (tptp.mem A X S1) (not (tptp.mem A X S2))))))
(assert (forall ((A tptp.ty) (S1 tptp.uni) (S2 tptp.uni)) (tptp.subset A (tptp.diff A S1 S2) S1)))
(declare-fun tptp.choose (tptp.ty tptp.uni) tptp.uni)
(assert (forall ((A tptp.ty) (X tptp.uni)) (tptp.sort1 A (tptp.choose A X))))
(assert (forall ((A tptp.ty) (S tptp.uni)) (=> (not (tptp.is_empty A S)) (tptp.mem A (tptp.choose A S) S))))
(declare-fun tptp.cardinal1 (tptp.ty tptp.uni) Int)
(assert (forall ((A tptp.ty) (S tptp.uni)) (<= 0 (tptp.cardinal1 A S))))
(assert (forall ((A tptp.ty) (S tptp.uni)) (= (= (tptp.cardinal1 A S) 0) (tptp.is_empty A S))))
(assert (forall ((A tptp.ty) (X tptp.uni) (S tptp.uni)) (=> (not (tptp.mem A X S)) (= (tptp.cardinal1 A (tptp.add A X S)) (+ 1 (tptp.cardinal1 A S))))))
(assert (forall ((A tptp.ty) (X tptp.uni) (S tptp.uni)) (=> (tptp.mem A X S) (= (tptp.cardinal1 A S) (+ 1 (tptp.cardinal1 A (tptp.remove A X S)))))))
(assert (forall ((A tptp.ty) (S1 tptp.uni) (S2 tptp.uni)) (=> (tptp.subset A S1 S2) (<= (tptp.cardinal1 A S1) (tptp.cardinal1 A S2)))))
(assert (forall ((A tptp.ty) (S tptp.uni)) (=> (= (tptp.cardinal1 A S) 1) (forall ((X tptp.uni)) (=> (tptp.sort1 A X) (=> (tptp.mem A X S) (= X (tptp.choose A S))))))))
(declare-sort tptp.vertex1 0)
(declare-fun tptp.vertex () tptp.ty)
(declare-sort tptp.set_vertex 0)
(declare-fun tptp.succ1 (tptp.vertex1) tptp.set_vertex)
(declare-fun tptp.path1 (tptp.vertex1 tptp.vertex1 Int) Bool)
(assert (forall ((V tptp.vertex1)) (tptp.path1 V V 0)))
(declare-fun tptp.t2tb (tptp.set_vertex) tptp.uni)
(assert (forall ((X tptp.set_vertex)) (tptp.sort1 (tptp.set tptp.vertex) (tptp.t2tb X))))
(declare-fun tptp.tb2t (tptp.uni) tptp.set_vertex)
(assert (forall ((I tptp.set_vertex)) (= (tptp.tb2t (tptp.t2tb I)) I)))
(assert (forall ((J tptp.uni)) (=> (tptp.sort1 (tptp.set tptp.vertex) J) (= (tptp.t2tb (tptp.tb2t J)) J))))
(declare-fun tptp.t2tb1 (tptp.vertex1) tptp.uni)
(assert (forall ((X tptp.vertex1)) (tptp.sort1 tptp.vertex (tptp.t2tb1 X))))
(declare-fun tptp.tb2t1 (tptp.uni) tptp.vertex1)
(assert (forall ((I tptp.vertex1)) (= (tptp.tb2t1 (tptp.t2tb1 I)) I)))
(assert (forall ((J tptp.uni)) (=> (tptp.sort1 tptp.vertex J) (= (tptp.t2tb1 (tptp.tb2t1 J)) J))))
(assert (forall ((V1 tptp.vertex1) (V2 tptp.vertex1) (V3 tptp.vertex1) (N Int)) (=> (tptp.path1 V1 V2 N) (=> (tptp.mem tptp.vertex (tptp.t2tb1 V3) (tptp.t2tb (tptp.succ1 V2))) (tptp.path1 V1 V3 (+ N 1))))))
(assert (forall ((Z tptp.vertex1) (Z1 tptp.vertex1) (Z2 Int)) (=> (tptp.path1 Z Z1 Z2) (or (exists ((V tptp.vertex1)) (and (= Z V) (= Z1 V) (= Z2 0))) (exists ((V1 tptp.vertex1) (V2 tptp.vertex1) (V3 tptp.vertex1) (N Int)) (and (tptp.path1 V1 V2 N) (tptp.mem tptp.vertex (tptp.t2tb1 V3) (tptp.t2tb (tptp.succ1 V2))) (= Z V1) (= Z1 V3) (= Z2 (+ N 1))))))))
(assert (forall ((V1 tptp.vertex1) (V2 tptp.vertex1) (N Int)) (=> (tptp.path1 V1 V2 N) (<= 0 N))))
(assert (forall ((V1 tptp.vertex1) (V3 tptp.vertex1) (N Int)) (=> (<= 0 N) (=> (tptp.path1 V1 V3 (+ N 1)) (exists ((V2 tptp.vertex1)) (and (tptp.path1 V1 V2 N) (tptp.mem tptp.vertex (tptp.t2tb1 V3) (tptp.t2tb (tptp.succ1 V2)))))))))
(assert (forall ((S tptp.set_vertex)) (=> (forall ((X tptp.vertex1)) (=> (tptp.mem tptp.vertex (tptp.t2tb1 X) (tptp.t2tb S)) (forall ((Y tptp.vertex1)) (let ((_let_1 (tptp.t2tb1 Y))) (=> (tptp.mem tptp.vertex _let_1 (tptp.t2tb (tptp.succ1 X))) (tptp.mem tptp.vertex _let_1 (tptp.t2tb S))))))) (forall ((V1 tptp.vertex1) (V2 tptp.vertex1) (N Int)) (let ((_let_1 (tptp.t2tb S))) (=> (tptp.path1 V1 V2 N) (=> (tptp.mem tptp.vertex (tptp.t2tb1 V1) _let_1) (tptp.mem tptp.vertex (tptp.t2tb1 V2) _let_1))))))))
(declare-fun tptp.shortest_path1 (tptp.vertex1 tptp.vertex1 Int) Bool)
(assert (forall ((V1 tptp.vertex1) (V2 tptp.vertex1) (N Int)) (= (tptp.shortest_path1 V1 V2 N) (and (tptp.path1 V1 V2 N) (forall ((M Int)) (=> (< M N) (not (tptp.path1 V1 V2 M))))))))
(declare-fun tptp.ref (tptp.ty) tptp.ty)
(declare-fun tptp.mk_ref (tptp.ty tptp.uni) tptp.uni)
(assert (forall ((A tptp.ty) (X tptp.uni)) (tptp.sort1 (tptp.ref A) (tptp.mk_ref A X))))
(declare-fun tptp.contents (tptp.ty tptp.uni) tptp.uni)
(assert (forall ((A tptp.ty) (X tptp.uni)) (tptp.sort1 A (tptp.contents A X))))
(assert (forall ((A tptp.ty) (U tptp.uni)) (=> (tptp.sort1 A U) (= (tptp.contents A (tptp.mk_ref A U)) U))))
(assert (forall ((A tptp.ty) (U tptp.uni)) (=> (tptp.sort1 (tptp.ref A) U) (= U (tptp.mk_ref A (tptp.contents A U))))))
(declare-fun tptp.inv1 (tptp.vertex1 tptp.vertex1 tptp.set_vertex tptp.set_vertex tptp.set_vertex Int) Bool)
(assert (forall ((S tptp.vertex1) (T tptp.vertex1) (Visited tptp.set_vertex) (Current tptp.set_vertex) (Next tptp.set_vertex) (D Int)) (let ((_let_1 (tptp.t2tb Next))) (let ((_let_2 (tptp.t2tb1 T))) (let ((_let_3 (tptp.t2tb Current))) (let ((_let_4 (tptp.t2tb Visited))) (= (tptp.inv1 S T Visited Current Next D) (and (tptp.subset tptp.vertex _let_3 _let_4) (forall ((X tptp.vertex1)) (=> (tptp.mem tptp.vertex (tptp.t2tb1 X) (tptp.t2tb Current)) (tptp.shortest_path1 S X D))) (tptp.subset tptp.vertex _let_1 _let_4) (forall ((X tptp.vertex1)) (=> (tptp.mem tptp.vertex (tptp.t2tb1 X) (tptp.t2tb Next)) (tptp.shortest_path1 S X (+ D 1)))) (forall ((X tptp.vertex1) (M Int)) (=> (tptp.path1 S X M) (=> (<= M D) (tptp.mem tptp.vertex (tptp.t2tb1 X) (tptp.t2tb Visited))))) (forall ((X tptp.vertex1)) (=> (tptp.mem tptp.vertex (tptp.t2tb1 X) (tptp.t2tb Visited)) (exists ((M Int)) (and (tptp.path1 S X M) (<= M (+ D 1)))))) (forall ((X tptp.vertex1)) (let ((_let_1 (tptp.t2tb1 X))) (=> (tptp.shortest_path1 S X (+ D 1)) (or (tptp.mem tptp.vertex _let_1 (tptp.t2tb Next)) (not (tptp.mem tptp.vertex _let_1 (tptp.t2tb Visited))))))) (=> (tptp.mem tptp.vertex _let_2 _let_4) (or (tptp.mem tptp.vertex _let_2 _let_3) (tptp.mem tptp.vertex _let_2 _let_1)))))))))))
(declare-fun tptp.closure1 (tptp.set_vertex tptp.set_vertex tptp.set_vertex tptp.vertex1) Bool)
(assert (forall ((Visited tptp.set_vertex) (Current tptp.set_vertex) (Next tptp.set_vertex) (X tptp.vertex1)) (let ((_let_1 (tptp.t2tb1 X))) (= (tptp.closure1 Visited Current Next X) (=> (tptp.mem tptp.vertex _let_1 (tptp.t2tb Visited)) (=> (not (tptp.mem tptp.vertex _let_1 (tptp.t2tb Current))) (=> (not (tptp.mem tptp.vertex _let_1 (tptp.t2tb Next))) (forall ((Y tptp.vertex1)) (let ((_let_1 (tptp.t2tb1 Y))) (=> (tptp.mem tptp.vertex _let_1 (tptp.t2tb (tptp.succ1 X))) (tptp.mem tptp.vertex _let_1 (tptp.t2tb Visited))))))))))))
(assert (not (forall ((S tptp.vertex1) (T tptp.vertex1) (D Int) (Next tptp.set_vertex) (Current tptp.set_vertex) (Visited tptp.set_vertex)) (=> (and (tptp.inv1 S T Visited Current Next D) (=> (tptp.is_empty tptp.vertex (tptp.t2tb Current)) (tptp.is_empty tptp.vertex (tptp.t2tb Next))) (forall ((X tptp.vertex1)) (tptp.closure1 Visited Current Next X)) (<= 0 D)) (forall ((O tptp.bool1)) (let ((_let_1 (tptp.is_empty tptp.vertex (tptp.t2tb Current)))) (let ((_let_2 (= O tptp.true1))) (=> (= _let_2 _let_1) (=> (not _let_2) (=> (not _let_1) (forall ((Current1 tptp.set_vertex) (V tptp.vertex1)) (let ((_let_1 (tptp.t2tb Current))) (let ((_let_2 (tptp.t2tb1 V))) (=> (and (tptp.mem tptp.vertex _let_2 _let_1) (= Current1 (tptp.tb2t (tptp.remove tptp.vertex _let_2 _let_1)))) (=> (not (= V T)) (=> (and (tptp.inv1 S T Visited Current1 Next D) (tptp.shortest_path1 S V D) (forall ((X tptp.vertex1)) (=> (not (= X V)) (tptp.closure1 Visited Current1 Next X)))) (forall ((Next1 tptp.set_vertex) (Visited1 tptp.set_vertex)) (=> (and (tptp.inv1 S T Visited1 Current1 Next1 D) (tptp.subset tptp.vertex (tptp.t2tb (tptp.succ1 V)) (tptp.t2tb Visited1)) (forall ((X tptp.vertex1)) (tptp.closure1 Visited1 Current1 Next1 X))) (forall ((Result tptp.bool1)) (let ((_let_1 (= Result tptp.true1))) (=> (= _let_1 (tptp.is_empty tptp.vertex (tptp.t2tb Current1))) (=> _let_1 (forall ((Current2 tptp.set_vertex)) (=> (= Current2 Next1) (forall ((Next2 tptp.set_vertex)) (=> (= Next2 (tptp.tb2t (tptp.empty tptp.vertex))) (forall ((D1 Int)) (=> (= D1 (+ D 1)) (forall ((X tptp.vertex1)) (tptp.closure1 Visited1 Current2 Next2 X))))))))))))))))))))))))))))))
(check-sat)
(exit)
